(set-info :source |printed by MathSAT|)
(declare-fun |.x{15}| () (Array Int Int))
(declare-fun |.x{20}| () (Array Int Int))
(declare-fun |.x{16}| () (Array Int Int))
(declare-fun |.x{21}| () (Array Int Int))
(declare-fun |.x{17}| () Int)
(declare-fun |.y{6}| () Int)
(declare-fun |.x{18}| () Int)
(declare-fun |.y{7}| () Int)
(declare-fun |.y{3}| () (Array Int Int))
(declare-fun |.x{19}| () (Array Int Int))
(declare-fun |.y{4}| () Int)
(declare-fun |.x{22}| () Int)
(declare-fun |.y{5}| () Int)
(declare-fun |.x{23}| () Int)
(declare-fun |.loc{2}| () Bool)
(declare-fun |.loc{3}| () Bool)
(declare-fun |.x{11}| () Int)
(declare-fun |.x{9}| () Int)
(declare-fun |.x{39}| () Int)
(define-fun .def_12 () Int (! |.x{17}| :next |.y{6}|))
(define-fun .def_80 () Bool (= .def_12 0))
(define-fun .def_22 () Bool (! |.loc{2}| :next |.loc{3}|))
(define-fun .def_31 () Bool (not .def_22))
(define-fun .def_81 () Bool (! (and .def_31 .def_80) :init true))
(define-fun .def_8 () (Array Int Int) (! |.x{15}| :next |.x{20}|))
(define-fun .def_75 () Bool (= .def_8 |.x{20}|))
(define-fun .def_10 () (Array Int Int) (! |.x{16}| :next |.x{21}|))
(define-fun .def_74 () Bool (= .def_10 |.x{21}|))
(define-fun .def_76 () Bool (and .def_74 .def_75))
(define-fun .def_77 () Bool (and |.loc{3}| .def_76))
(define-fun .def_14 () Int (! |.x{18}| :next |.y{7}|))
(define-fun .def_70 () Bool (= .def_14 |.x{23}|))
(define-fun .def_68 () Bool (= |.x{22}| 0))
(define-fun .def_69 () Bool (and .def_31 .def_68))
(define-fun .def_71 () Bool (and .def_69 .def_70))
(define-fun .def_28 () Bool (<= .def_14 .def_12))
(define-fun .def_72 () Bool (and .def_28 .def_71))
(define-fun .def_18 () Int (! |.y{4}| :next |.x{22}|))
(define-fun .def_61 () Int (select .def_10 .def_18))
(define-fun .def_62 () Int (* (- 1) .def_61))
(define-fun .def_60 () Int (select .def_8 .def_18))
(define-fun .def_63 () Int (+ .def_60 .def_62))
(define-fun .def_16 () (Array Int Int) (! |.y{3}| :next |.x{19}|))
(define-fun .def_64 () (Array Int Int) (store .def_16 .def_18 .def_63))
(define-fun .def_65 () Bool (= |.x{19}| .def_64))
(define-fun .def_20 () Int (! |.y{5}| :next |.x{23}|))
(define-fun .def_57 () Bool (<= .def_20 .def_18))
(define-fun .def_58 () Bool (not .def_57))
(define-fun .def_55 () Bool (= .def_20 |.x{23}|))
(define-fun .def_51 () Int (* (- 1) |.x{22}|))
(define-fun .def_52 () Int (+ .def_18 .def_51))
(define-fun .def_53 () Bool (= .def_52 (- 1)))
(define-fun .def_54 () Bool (and .def_22 .def_53))
(define-fun .def_56 () Bool (and .def_54 .def_55))
(define-fun .def_59 () Bool (and .def_56 .def_58))
(define-fun .def_66 () Bool (and .def_59 .def_65))
(define-fun .def_73 () Bool (or .def_66 .def_72))
(define-fun .def_78 () Bool (and .def_73 .def_77))
(define-fun .def_45 () (Array Int Int) (store .def_10 .def_12 |.x{11}|))
(define-fun .def_46 () Bool (= |.x{21}| .def_45))
(define-fun .def_42 () (Array Int Int) (store .def_8 .def_12 |.x{9}|))
(define-fun .def_43 () Bool (= |.x{20}| .def_42))
(define-fun .def_40 () Bool (= .def_14 |.y{7}|))
(define-fun .def_38 () Bool (not |.loc{3}|))
(define-fun .def_35 () Bool (<= |.x{9}| |.x{11}|))
(define-fun .def_36 () Bool (not .def_35))
(define-fun .def_29 () Bool (not .def_28))
(define-fun .def_25 () Int (* (- 1) |.y{6}|))
(define-fun .def_26 () Int (+ .def_12 .def_25))
(define-fun .def_27 () Bool (= .def_26 (- 1)))
(define-fun .def_30 () Bool (and .def_27 .def_29))
(define-fun .def_32 () Bool (and .def_30 .def_31))
(define-fun .def_37 () Bool (and .def_32 .def_36))
(define-fun .def_39 () Bool (and .def_37 .def_38))
(define-fun .def_41 () Bool (and .def_39 .def_40))
(define-fun .def_44 () Bool (and .def_41 .def_43))
(define-fun .def_47 () Bool (and .def_44 .def_46))
(define-fun .def_79 () Bool (! (or .def_47 .def_78) :trans true))
(define-fun .def_82 () Int (! |.x{39}| :next |.xpv{1}|))
(define-fun .def_87 () Bool (<= .def_82 0))
(define-fun .def_88 () Bool (not .def_87))
(define-fun .def_89 () Bool (and .def_57 .def_88))
(define-fun .def_85 () Bool (<= .def_20 .def_82))
(define-fun .def_86 () Bool (not .def_85))
(define-fun .def_90 () Bool (and .def_86 .def_89))
(define-fun .def_83 () Int (select .def_16 .def_82))
(define-fun .def_84 () Bool (<= .def_83 0))
(define-fun .def_91 () Bool (and .def_84 .def_90))
(define-fun .def_92 () Bool (and .def_22 .def_91))
(define-fun .def_94 () Bool (! (not .def_92) :invar-property 0))
(assert true)
